NAME          DCAP_3_4_2_500_SS277
ROWS
 N  OBJ
 L  CON1
 L  CON2
 L  CON3
 L  CON4
 L  CON5
 L  CON6
 L  CON7
 L  CON8
 L  CON9
 L  CON10
 L  CON11
 L  CON12
 E  CON13
 E  CON14
 E  CON15
 E  CON16
 E  CON17
 E  CON18
 E  CON19
 E  CON20
COLUMNS
    x[1,1]    OBJ       6.180167      CON1      1.000000    
    x[1,1]    CON7      -1.000000     CON8      -1.000000   
    x[1,2]    OBJ       5.039546      CON2      1.000000    
    x[1,2]    CON8      -1.000000   
    x[2,1]    OBJ       6.732585      CON3      1.000000    
    x[2,1]    CON9      -1.000000     CON10     -1.000000   
    x[2,2]    OBJ       7.443064      CON4      1.000000    
    x[2,2]    CON10     -1.000000   
    x[3,1]    OBJ       6.563535      CON5      1.000000    
    x[3,1]    CON11     -1.000000     CON12     -1.000000   
    x[3,2]    OBJ       6.054841      CON6      1.000000    
    x[3,2]    CON12     -1.000000   
    MARKER    'MARKER'                'INTORG'
    u[1,1]    OBJ       48.076654     CON1      -1.000000   
    u[1,2]    OBJ       49.466655     CON2      -1.000000   
    u[2,1]    OBJ       49.996186     CON3      -1.000000   
    u[2,2]    OBJ       32.230043     CON4      -1.000000   
    u[3,1]    OBJ       20.066487     CON5      -1.000000   
    u[3,2]    OBJ       27.484319     CON6      -1.000000   
    y[1,1,1]  OBJ       7.679349      CON7      1.390940    
    y[1,1,1]  CON13     1.000000    
    y[1,1,2]  OBJ       5.565313      CON8      1.191311    
    y[1,1,2]  CON14     1.000000    
    y[1,2,1]  OBJ       6.507107      CON7      1.408679    
    y[1,2,1]  CON15     1.000000    
    y[1,2,2]  OBJ       7.936980      CON8      1.495919    
    y[1,2,2]  CON16     1.000000    
    y[1,3,1]  OBJ       6.818996      CON7      1.338616    
    y[1,3,1]  CON17     1.000000    
    y[1,3,2]  OBJ       9.547662      CON8      1.464319    
    y[1,3,2]  CON18     1.000000    
    y[1,4,1]  OBJ       8.265125      CON7      1.452069    
    y[1,4,1]  CON19     1.000000    
    y[1,4,2]  OBJ       5.522753      CON8      1.385671    
    y[1,4,2]  CON20     1.000000    
    y[2,1,1]  OBJ       9.960277      CON9      1.390940    
    y[2,1,1]  CON13     1.000000    
    y[2,1,2]  OBJ       6.082272      CON10     1.191311    
    y[2,1,2]  CON14     1.000000    
    y[2,2,1]  OBJ       8.750042      CON9      1.408679    
    y[2,2,1]  CON15     1.000000    
    y[2,2,2]  OBJ       8.987702      CON10     1.495919    
    y[2,2,2]  CON16     1.000000    
    y[2,3,1]  OBJ       5.382840      CON9      1.338616    
    y[2,3,1]  CON17     1.000000    
    y[2,3,2]  OBJ       7.361551      CON10     1.464319    
    y[2,3,2]  CON18     1.000000    
    y[2,4,1]  OBJ       5.043872      CON9      1.452069    
    y[2,4,1]  CON19     1.000000    
    y[2,4,2]  OBJ       6.354966      CON10     1.385671    
    y[2,4,2]  CON20     1.000000    
    y[3,1,1]  OBJ       5.971407      CON11     1.390940    
    y[3,1,1]  CON13     1.000000    
    y[3,1,2]  OBJ       6.421097      CON12     1.191311    
    y[3,1,2]  CON14     1.000000    
    y[3,2,1]  OBJ       9.293387      CON11     1.408679    
    y[3,2,1]  CON15     1.000000    
    y[3,2,2]  OBJ       8.227022      CON12     1.495919    
    y[3,2,2]  CON16     1.000000    
    y[3,3,1]  OBJ       7.356303      CON11     1.338616    
    y[3,3,1]  CON17     1.000000    
    y[3,3,2]  OBJ       9.760214      CON12     1.464319    
    y[3,3,2]  CON18     1.000000    
    y[3,4,1]  OBJ       5.598790      CON11     1.452069    
    y[3,4,1]  CON19     1.000000    
    y[3,4,2]  OBJ       8.835784      CON12     1.385671    
    y[3,4,2]  CON20     1.000000    
    z[1,1]    OBJ       796.572018    CON13     1.000000    
    z[1,2]    OBJ       720.069439    CON14     1.000000    
    z[2,1]    OBJ       607.141508    CON15     1.000000    
    z[2,2]    OBJ       598.564316    CON16     1.000000    
    z[3,1]    OBJ       824.709587    CON17     1.000000    
    z[3,2]    OBJ       639.878264    CON18     1.000000    
    z[4,1]    OBJ       720.909209    CON19     1.000000    
    z[4,2]    OBJ       510.322133    CON20     1.000000    
    MARKER    'MARKER'                 'INTEND'
RHS
    RHS       CON1      -0.000000     CON2      -0.000000   
    RHS       CON3      -0.000000     CON4      -0.000000   
    RHS       CON5      -0.000000     CON6      -0.000000   
    RHS       CON7      -0.000000     CON8      -0.000000   
    RHS       CON9      -0.000000     CON10     -0.000000   
    RHS       CON11     -0.000000     CON12     -0.000000   
    RHS       CON13     1.000000      CON14     1.000000    
    RHS       CON15     1.000000      CON16     1.000000    
    RHS       CON17     1.000000      CON18     1.000000    
    RHS       CON19     1.000000      CON20     1.000000    
BOUNDS
 BV BOUND     u[1,1]  
 BV BOUND     u[1,2]  
 BV BOUND     u[2,1]  
 BV BOUND     u[2,2]  
 BV BOUND     u[3,1]  
 BV BOUND     u[3,2]  
 BV BOUND     y[1,1,1]
 BV BOUND     y[1,1,2]
 BV BOUND     y[1,2,1]
 BV BOUND     y[1,2,2]
 BV BOUND     y[1,3,1]
 BV BOUND     y[1,3,2]
 BV BOUND     y[1,4,1]
 BV BOUND     y[1,4,2]
 BV BOUND     y[2,1,1]
 BV BOUND     y[2,1,2]
 BV BOUND     y[2,2,1]
 BV BOUND     y[2,2,2]
 BV BOUND     y[2,3,1]
 BV BOUND     y[2,3,2]
 BV BOUND     y[2,4,1]
 BV BOUND     y[2,4,2]
 BV BOUND     y[3,1,1]
 BV BOUND     y[3,1,2]
 BV BOUND     y[3,2,1]
 BV BOUND     y[3,2,2]
 BV BOUND     y[3,3,1]
 BV BOUND     y[3,3,2]
 BV BOUND     y[3,4,1]
 BV BOUND     y[3,4,2]
 BV BOUND     z[1,1]  
 BV BOUND     z[1,2]  
 BV BOUND     z[2,1]  
 BV BOUND     z[2,2]  
 BV BOUND     z[3,1]  
 BV BOUND     z[3,2]  
 BV BOUND     z[4,1]  
 BV BOUND     z[4,2]  
ENDATA
